\ Model Routes
\ LP format - for model browsing. Use MPS format to capture full model detail.
Maximize
  - 191.7153353028244 R{0,0} + 623.2046552982704 R{0,1}
   + 623.2046552982704 R{0,2} - 249.2301939667805 R{0,3}
   - 280.5948381113316 R{0,4} + 819.3945645703111 R{0,5}
   + 819.3945645703111 R{0,6} + 592.7206778310878 R{0,7}
   + 852.3918860260821 R{0,8} + 100.7856989525501 R{0,9}
   + 577.8421868511019 R{0,10} + 212.7267592095111 R{0,11}
   + 565.1285845609298 R{0,12} + 163.9197735754843 R{0,13}
   + 486.6829182142316 R{0,14} + 96.79623890446209 R{0,15}
   + 108.5677407282498 R{0,16} + 108.5677407282498 R{0,17}
   + 409.2972774498991 R{0,18} + 883.1593668324961 R{0,19}
   + 96.79623890446209 R{0,20} + 391.2121930538833 R{0,21}
   + 203.4077126354989 R{0,22} - 256.140831891889 R{1,0}
   + 41.44651618699046 R{1,1} + 468.947430945026 R{1,2}
   + 2783.978862437442 R{1,3} + 715.5873105937868 R{1,4}
   + 2829.317324784896 R{1,5} + 331.17263566273 R{1,6}
   + 2170.676848963762 R{1,7} + 223.5535695116518 R{1,8}
   + 2869.84225833713 R{1,9} + 738.4136468752215 R{1,10}
   + 2724.201103932526 R{1,11} + 79.23743184435932 R{1,12}
   + 2546.736328742176 R{1,13} + 1565.919517027112 R{1,14}
   + 2724.201103932526 R{1,15} + 255.4672478122766 R{1,16}
   + 2028.89210826267 R{1,17} + 2810.064499832214 R{1,18}
   + 2146.768673039097 R{1,19} + 2429.349669081818 R{1,20}
   + 2059.65732552438 R{1,21} + 1220.677730098214 R{1,22}
   + 1198.881248318718 R{2,0} + 1198.881248318718 R{2,1}
   - 278.4443928850388 R{2,2} + 123.1276294245157 R{2,3}
   + 1332.009236519289 R{2,4} + 832.465065802254 R{2,5}
   + 954.1021289156718 R{2,6} + 124.111107645844 R{2,7}
   + 626.6960134231266 R{2,8} + 774.166852893441 R{2,9}
   + 300.52075841901 R{2,10} + 261.4711603035495 R{2,11}
   + 725.2351538442874 R{2,12} + 1332.009236519289 R{2,13}
   + 981.0507504042589 R{2,14} + 1332.009236519289 R{2,15}
   + 626.6960134231266 R{2,16} + 261.4711603035495 R{2,17}
   - 260.2482995389823 R{3,0} + 566.7927653295129 R{3,1}
   + 1095.971940651614 R{3,2} + 1185.081143965071 R{3,3}
   + 1351.97231051257 R{3,4} + 698.4274330155386 R{3,5}
   + 753.631077750824 R{3,6} + 705.0223530402986 R{3,7}
   + 1052.211122271808 R{3,8} + 443.1024559027118 R{3,9}
   + 1407.376275491146 R{3,10} + 301.0204885508433 R{3,11}
   + 1348.884895936467 R{3,12} + 1348.884895936467 R{3,13}
   + 1154.281908767818 R{3,14} + 1032.481880326307 R{3,15}
   + 590.0665909678917 R{3,16} + 605.1062654908126 R{3,17}
   - 242.5208875955131 R{4,0} + 900.3843124958082 R{4,1}
   + 1216.961895582121 R{4,2} + 1345.189639585694 R{4,3}
   + 1193.961370158719 R{4,4} + 1261.083394900114 R{4,5}
   + 1233.145832302249 R{4,6} + 1511.884709621646 R{4,7}
   + 1482.662063513286 R{4,8} + 1024.714673866878 R{4,9}
   + 1981.874647490116 R{4,10} + 1336.696457472688 R{4,11}
   + 1236.777543760875 R{4,12} + 1237.207124727607 R{4,13}
   + 1265.449908106922 R{4,14} + 1463.740196977106 R{4,15}
   + 1237.207124727607 R{4,16} + 1858.983718653817 R{4,17}
   + 1016.313875718671 R{4,18} + 822.1525029572517 R{4,19}
   + 1336.696457472688 R{4,20} + 1212.901273588369 R{4,21}
   + 1978.755200337713 R{4,22} + 1371.542262343111 R{4,23}
   + 1212.901273588369 R{4,24} + 1108.742255107108 R{4,25}
   + 1620.443805214649 R{4,26} + 1147.329510833617 R{4,27}
   + 1523.027111526251 R{4,28} + 1571.152969479937 R{4,29}
   + 646.0282742318273 R{4,30} + 1068.369697258915 R{4,31}
   - 231.9775664337766 R{5,0} + 132.4304114360171 R{5,1}
   + 716.8946328252955 R{5,2} + 501.6203379963799 R{5,3}
   + 855.852941831072 R{5,4} + 529.7112105496612 R{5,5}
   + 215.2727558189625 R{5,6} + 448.7051334850606 R{5,7}
   + 182.3609398555743 R{5,8} + 182.3609398555743 R{5,9}
   + 215.2727558189625 R{5,10} + 825.1530434663775 R{5,11}
   + 177.5276551787917 R{5,12} - 94.83409469998006 R{5,13}
   + 282.9473748110391 R{5,14} + 216.6164009484193 R{5,15}
   - 231.1436095783099 R{6,0} + 1291.020798910079 R{6,1}
   + 1395.48646502248 R{6,2} + 1911.078048938017 R{6,3}
   + 2674.38119960313 R{6,4} + 1623.884308471369 R{6,5}
   + 3084.013716668632 R{6,6} + 2140.674263278089 R{6,7}
   + 1662.090461050587 R{6,8} + 1023.975982396916 R{6,9}
   + 2327.163252857906 R{6,10} + 1153.850640415647 R{6,11}
   + 1528.225838014809 R{6,12} + 808.0438192148167 R{6,13}
   + 1127.024986070808 R{6,14} + 1804.876469526323 R{6,15}
   + 1930.892585733585 R{6,16} + 856.9697661635746 R{6,17}
   + 2049.4270476684 R{6,18} + 1949.57212360516 R{6,19}
   + 1712.303712533239 R{6,20} + 1532.637092861681 R{6,21}
   + 1896.12368513601 R{6,22} + 1519.385387138328 R{6,23}
   + 1804.876469526323 R{6,24} + 1575.827008461096 R{6,25}
   + 1053.041270276487 R{6,26} + 1414.919721025927 R{6,27}
   + 108.276544953883 R{6,28} + 1896.12368513601 R{6,29}
   + 1053.041270276487 R{6,30} + 1557.624794938186 R{6,31}
   + 1787.513909308921 R{6,32} + 1653.243918082202 R{6,33}
   + 935.7517820752319 R{6,34} + 2103.18050949407 R{6,35}
   + 441.0606174431305 R{6,36} + 1493.456937417236 R{6,37}
   + 858.6513319680257 R{6,38} + 1317.571682523432 R{6,39}
Subject To
 R00: R{0,0} <= 1
 R01: R{0,1} <= 1
 R02: R{0,2} <= 1
 R03: R{0,3} <= 1
 R04: R{0,4} <= 1
 R05: R{0,5} <= 1
 R06: R{0,6} <= 1
 R07: R{0,7} <= 1
 R08: R{0,8} <= 1
 R09: R{0,9} <= 1
 R010: R{0,10} <= 1
 R011: R{0,11} <= 1
 R012: R{0,12} <= 1
 R013: R{0,13} <= 1
 R014: R{0,14} <= 1
 R015: R{0,15} <= 1
 R016: R{0,16} <= 1
 R017: R{0,17} <= 1
 R018: R{0,18} <= 1
 R019: R{0,19} <= 1
 R020: R{0,20} <= 1
 R021: R{0,21} <= 1
 R022: R{0,22} <= 1
 R023: R{1,0} <= 1
 R024: R{1,1} <= 1
 R025: R{1,2} <= 1
 R026: R{1,3} <= 1
 R027: R{1,4} <= 1
 R028: R{1,5} <= 1
 R029: R{1,6} <= 1
 R030: R{1,7} <= 1
 R031: R{1,8} <= 1
 R032: R{1,9} <= 1
 R033: R{1,10} <= 1
 R034: R{1,11} <= 1
 R035: R{1,12} <= 1
 R036: R{1,13} <= 1
 R037: R{1,14} <= 1
 R038: R{1,15} <= 1
 R039: R{1,16} <= 1
 R040: R{1,17} <= 1
 R041: R{1,18} <= 1
 R042: R{1,19} <= 1
 R043: R{1,20} <= 1
 R044: R{1,21} <= 1
 R045: R{1,22} <= 1
 R046: R{2,0} <= 1
 R047: R{2,1} <= 1
 R048: R{2,2} <= 1
 R049: R{2,3} <= 1
 R050: R{2,4} <= 1
 R051: R{2,5} <= 1
 R052: R{2,6} <= 1
 R053: R{2,7} <= 1
 R054: R{2,8} <= 1
 R055: R{2,9} <= 1
 R056: R{2,10} <= 1
 R057: R{2,11} <= 1
 R058: R{2,12} <= 1
 R059: R{2,13} <= 1
 R060: R{2,14} <= 1
 R061: R{2,15} <= 1
 R062: R{2,16} <= 1
 R063: R{2,17} <= 1
 R064: R{3,0} <= 1
 R065: R{3,1} <= 1
 R066: R{3,2} <= 1
 R067: R{3,3} <= 1
 R068: R{3,4} <= 1
 R069: R{3,5} <= 1
 R070: R{3,6} <= 1
 R071: R{3,7} <= 1
 R072: R{3,8} <= 1
 R073: R{3,9} <= 1
 R074: R{3,10} <= 1
 R075: R{3,11} <= 1
 R076: R{3,12} <= 1
 R077: R{3,13} <= 1
 R078: R{3,14} <= 1
 R079: R{3,15} <= 1
 R080: R{3,16} <= 1
 R081: R{3,17} <= 1
 R082: R{4,0} <= 1
 R083: R{4,1} <= 1
 R084: R{4,2} <= 1
 R085: R{4,3} <= 1
 R086: R{4,4} <= 1
 R087: R{4,5} <= 1
 R088: R{4,6} <= 1
 R089: R{4,7} <= 1
 R090: R{4,8} <= 1
 R091: R{4,9} <= 1
 R092: R{4,10} <= 1
 R093: R{4,11} <= 1
 R094: R{4,12} <= 1
 R095: R{4,13} <= 1
 R096: R{4,14} <= 1
 R097: R{4,15} <= 1
 R098: R{4,16} <= 1
 R099: R{4,17} <= 1
 R0100: R{4,18} <= 1
 R0101: R{4,19} <= 1
 R0102: R{4,20} <= 1
 R0103: R{4,21} <= 1
 R0104: R{4,22} <= 1
 R0105: R{4,23} <= 1
 R0106: R{4,24} <= 1
 R0107: R{4,25} <= 1
 R0108: R{4,26} <= 1
 R0109: R{4,27} <= 1
 R0110: R{4,28} <= 1
 R0111: R{4,29} <= 1
 R0112: R{4,30} <= 1
 R0113: R{4,31} <= 1
 R0114: R{5,0} <= 1
 R0115: R{5,1} <= 1
 R0116: R{5,2} <= 1
 R0117: R{5,3} <= 1
 R0118: R{5,4} <= 1
 R0119: R{5,5} <= 1
 R0120: R{5,6} <= 1
 R0121: R{5,7} <= 1
 R0122: R{5,8} <= 1
 R0123: R{5,9} <= 1
 R0124: R{5,10} <= 1
 R0125: R{5,11} <= 1
 R0126: R{5,12} <= 1
 R0127: R{5,13} <= 1
 R0128: R{5,14} <= 1
 R0129: R{5,15} <= 1
 R0130: R{6,0} <= 1
 R0131: R{6,1} <= 1
 R0132: R{6,2} <= 1
 R0133: R{6,3} <= 1
 R0134: R{6,4} <= 1
 R0135: R{6,5} <= 1
 R0136: R{6,6} <= 1
 R0137: R{6,7} <= 1
 R0138: R{6,8} <= 1
 R0139: R{6,9} <= 1
 R0140: R{6,10} <= 1
 R0141: R{6,11} <= 1
 R0142: R{6,12} <= 1
 R0143: R{6,13} <= 1
 R0144: R{6,14} <= 1
 R0145: R{6,15} <= 1
 R0146: R{6,16} <= 1
 R0147: R{6,17} <= 1
 R0148: R{6,18} <= 1
 R0149: R{6,19} <= 1
 R0150: R{6,20} <= 1
 R0151: R{6,21} <= 1
 R0152: R{6,22} <= 1
 R0153: R{6,23} <= 1
 R0154: R{6,24} <= 1
 R0155: R{6,25} <= 1
 R0156: R{6,26} <= 1
 R0157: R{6,27} <= 1
 R0158: R{6,28} <= 1
 R0159: R{6,29} <= 1
 R0160: R{6,30} <= 1
 R0161: R{6,31} <= 1
 R0162: R{6,32} <= 1
 R0163: R{6,33} <= 1
 R0164: R{6,34} <= 1
 R0165: R{6,35} <= 1
 R0166: R{6,36} <= 1
 R0167: R{6,37} <= 1
 R0168: R{6,38} <= 1
 R0169: R{6,39} <= 1
 R1_0: R{0,0} + R{0,1} + R{0,2} + R{0,3} + R{0,4} + R{0,5} + R{0,6}
   + R{0,7} + R{0,8} + R{0,9} + R{0,10} + R{0,11} + R{0,12} + R{0,13}
   + R{0,14} + R{0,15} + R{0,16} + R{0,17} + R{0,18} + R{0,19} + R{0,20}
   + R{0,21} + R{0,22} <= 1
 R1_1: R{1,0} + R{1,1} + R{1,2} + R{1,3} + R{1,4} + R{1,5} + R{1,6}
   + R{1,7} + R{1,8} + R{1,9} + R{1,10} + R{1,11} + R{1,12} + R{1,13}
   + R{1,14} + R{1,15} + R{1,16} + R{1,17} + R{1,18} + R{1,19} + R{1,20}
   + R{1,21} + R{1,22} <= 1
 R1_2: R{2,0} + R{2,1} + R{2,2} + R{2,3} + R{2,4} + R{2,5} + R{2,6}
   + R{2,7} + R{2,8} + R{2,9} + R{2,10} + R{2,11} + R{2,12} + R{2,13}
   + R{2,14} + R{2,15} + R{2,16} + R{2,17} <= 1
 R1_3: R{3,0} + R{3,1} + R{3,2} + R{3,3} + R{3,4} + R{3,5} + R{3,6}
   + R{3,7} + R{3,8} + R{3,9} + R{3,10} + R{3,11} + R{3,12} + R{3,13}
   + R{3,14} + R{3,15} + R{3,16} + R{3,17} <= 1
 R1_4: R{4,0} + R{4,1} + R{4,2} + R{4,3} + R{4,4} + R{4,5} + R{4,6}
   + R{4,7} + R{4,8} + R{4,9} + R{4,10} + R{4,11} + R{4,12} + R{4,13}
   + R{4,14} + R{4,15} + R{4,16} + R{4,17} + R{4,18} + R{4,19} + R{4,20}
   + R{4,21} + R{4,22} + R{4,23} + R{4,24} + R{4,25} + R{4,26} + R{4,27}
   + R{4,28} + R{4,29} + R{4,30} + R{4,31} <= 1
 R1_5: R{5,0} + R{5,1} + R{5,2} + R{5,3} + R{5,4} + R{5,5} + R{5,6}
   + R{5,7} + R{5,8} + R{5,9} + R{5,10} + R{5,11} + R{5,12} + R{5,13}
   + R{5,14} + R{5,15} <= 1
 R1_6: R{6,0} + R{6,1} + R{6,2} + R{6,3} + R{6,4} + R{6,5} + R{6,6}
   + R{6,7} + R{6,8} + R{6,9} + R{6,10} + R{6,11} + R{6,12} + R{6,13}
   + R{6,14} + R{6,15} + R{6,16} + R{6,17} + R{6,18} + R{6,19} + R{6,20}
   + R{6,21} + R{6,22} + R{6,23} + R{6,24} + R{6,25} + R{6,26} + R{6,27}
   + R{6,28} + R{6,29} + R{6,30} + R{6,31} + R{6,32} + R{6,33} + R{6,34}
   + R{6,35} + R{6,36} + R{6,37} + R{6,38} + R{6,39} <= 1
 R2_0: 7 R{1,22} + 7 R{6,38} <= 7
 R2_1: 10 R{1,3} + 10 R{1,5} + 10 R{1,11} + 10 R{1,13} + 10 R{1,14}
   + 10 R{1,15} + 10 R{1,17} + 10 R{1,19} + 10 R{1,20} + 10 R{1,21}
   + 10 R{2,4} + 10 R{2,13} + 10 R{2,15} + 10 R{3,1} + 10 R{3,2}
   + 10 R{3,5} + 10 R{3,7} + 10 R{3,11} + 10 R{3,16} <= 10
 R2_2: <= 0
 R2_3: 4 R{0,4} + 4 R{0,5} + 4 R{0,6} + 4 R{0,11} + 4 R{0,19} + 4 R{3,6}
   + 4 R{4,6} + 4 R{4,8} + 4 R{4,13} + 4 R{4,16} + 4 R{4,21} + 4 R{4,24}
   + 4 R{4,28} + 4 R{5,5} + 4 R{5,11} + 4 R{5,15} + 4 R{6,2} + 4 R{6,3}
   + 4 R{6,5} + 4 R{6,8} + 4 R{6,9} + 4 R{6,10} + 4 R{6,19} + 4 R{6,21}
   + 4 R{6,23} + 4 R{6,25} + 4 R{6,26} + 4 R{6,30} + 4 R{6,33} + 4 R{6,35}
   + 4 R{6,39} <= 4
 R2_4: <= 0
 R2_5: 5 R{0,4} + 5 R{0,5} + 5 R{0,6} + 5 R{5,13} <= 5
 R2_6: 10 R{1,1} + 10 R{1,6} + 10 R{1,7} + 10 R{1,12} + 10 R{1,16}
   + 10 R{1,17} + 10 R{3,17} + 10 R{4,28} + 10 R{4,31} + 10 R{6,32}
   + 10 R{6,34} <= 10
 R2_7: 6 R{1,1} + 6 R{1,2} + 6 R{1,3} + 6 R{1,4} + 6 R{1,6} + 6 R{1,7}
   + 6 R{1,9} + 6 R{1,10} + 6 R{1,11} + 6 R{1,12} + 6 R{1,14} + 6 R{1,15}
   + 6 R{1,17} + 6 R{1,18} + 6 R{1,21} <= 6
 R2_8: <= 0
 R2_9: 12 R{1,22} + 12 R{4,1} + 12 R{4,2} + 12 R{4,3} + 12 R{4,5}
   + 12 R{4,6} + 12 R{4,9} + 12 R{4,10} + 12 R{4,11} + 12 R{4,12}
   + 12 R{4,13} + 12 R{4,14} + 12 R{4,16} + 12 R{4,19} + 12 R{4,20}
   + 12 R{4,21} + 12 R{4,22} + 12 R{4,23} + 12 R{4,24} + 12 R{4,25}
   + 12 R{4,26} + 12 R{4,28} + 12 R{4,29} + 12 R{4,31} <= 12
 R2_10: 8 R{0,7} + 8 R{0,8} + 8 R{0,18} + 8 R{2,14} + 8 R{6,1} + 8 R{6,2}
   + 8 R{6,3} + 8 R{6,4} + 8 R{6,8} + 8 R{6,11} + 8 R{6,12} + 8 R{6,13}
   + 8 R{6,14} + 8 R{6,16} + 8 R{6,20} + 8 R{6,26} + 8 R{6,30} + 8 R{6,31}
   + 8 R{6,32} + 8 R{6,39} <= 8
 R2_11: 15 R{4,18} + 15 R{4,30} <= 15
 R2_12: <= 0
 R2_13: 8 R{1,3} + 8 R{1,5} + 8 R{1,7} + 8 R{1,9} + 8 R{1,13} + 8 R{1,17}
   + 8 R{1,19} + 8 R{1,20} <= 8
 R2_14: <= 0
 R2_15: 11 R{0,0} + 11 R{0,1} + 11 R{0,2} + 11 R{0,13} + 11 R{4,1}
   + 11 R{4,2} + 11 R{4,3} + 11 R{4,5} + 11 R{4,6} + 11 R{4,8} + 11 R{4,9}
   + 11 R{4,11} + 11 R{4,13} + 11 R{4,14} + 11 R{4,16} + 11 R{4,19}
   + 11 R{4,20} + 11 R{4,23} + 11 R{4,31} <= 11
 R2_16: 5 R{0,8} + 5 R{0,14} + 5 R{0,18} + 5 R{0,21} + 5 R{1,9} + 5 R{1,17}
   + 5 R{1,18} + 5 R{2,14} <= 5
 R2_17: 11 R{1,3} + 11 R{1,5} + 11 R{1,7} + 11 R{1,9} + 11 R{1,11}
   + 11 R{1,13} + 11 R{1,14} + 11 R{1,15} + 11 R{1,17} + 11 R{1,18}
   + 11 R{1,19} + 11 R{1,20} + 11 R{1,21} + 11 R{6,10} + 11 R{6,25}
   + 11 R{6,35} + 11 R{6,38} <= 11
 R2_18: <= 0
 R2_19: 11 R{0,11} + 11 R{0,16} + 11 R{0,17} + 11 R{1,9} + 11 R{1,18}
   + 11 R{2,6} + 11 R{2,8} + 11 R{2,11} + 11 R{2,16} + 11 R{2,17}
   + 11 R{3,6} + 11 R{4,6} + 11 R{4,8} + 11 R{4,10} + 11 R{4,13}
   + 11 R{4,16} + 11 R{4,17} + 11 R{4,21} + 11 R{4,22} + 11 R{4,24}
   + 11 R{4,25} + 11 R{4,26} + 11 R{4,28} + 11 R{4,29} + 11 R{5,5}
   + 11 R{5,7} + 11 R{5,11} + 11 R{5,14} + 11 R{5,15} + 11 R{6,1}
   + 11 R{6,2} + 11 R{6,3} + 11 R{6,4} + 11 R{6,5} + 11 R{6,6} + 11 R{6,8}
   + 11 R{6,10} + 11 R{6,11} + 11 R{6,12} + 11 R{6,14} + 11 R{6,17}
   + 11 R{6,19} + 11 R{6,21} + 11 R{6,23} + 11 R{6,25} + 11 R{6,27}
   + 11 R{6,31} + 11 R{6,33} + 11 R{6,35} + 11 R{6,37} + 11 R{6,39} <= 11
 R2_20: 13 R{0,12} + 13 R{1,3} + 13 R{1,5} + 13 R{1,7} + 13 R{1,8}
   + 13 R{1,9} + 13 R{1,11} + 13 R{1,13} + 13 R{1,15} + 13 R{1,18}
   + 13 R{1,19} + 13 R{1,20} + 13 R{1,21} + 13 R{2,4} + 13 R{2,13}
   + 13 R{2,15} + 13 R{4,1} + 13 R{4,2} + 13 R{4,3} + 13 R{4,5}
   + 13 R{4,11} + 13 R{4,12} + 13 R{4,14} + 13 R{4,17} + 13 R{4,20}
   + 13 R{4,23} + 13 R{5,3} + 13 R{5,4} + 13 R{5,6} + 13 R{5,8} + 13 R{5,9}
   + 13 R{5,10} <= 13
 R2_21: <= 0
 R2_22: 10 R{6,34} + 10 R{6,36} + 10 R{6,38} <= 10
 R2_23: 14 R{0,1} + 14 R{0,2} + 14 R{0,7} + 14 R{0,8} + 14 R{0,10}
   + 14 R{0,14} + 14 R{2,0} + 14 R{2,1} + 14 R{2,5} + 14 R{2,9} + 14 R{4,4}
   + 14 R{4,27} + 14 R{6,4} + 14 R{6,6} + 14 R{6,8} + 14 R{6,31} <= 14
 R2_24: 10 R{1,6} + 10 R{1,16} + 10 R{3,1} + 10 R{3,2} + 10 R{3,3}
   + 10 R{3,4} + 10 R{3,6} + 10 R{3,8} + 10 R{3,10} + 10 R{3,12}
   + 10 R{3,13} + 10 R{3,15} + 10 R{3,16} + 10 R{3,17} + 10 R{4,6}
   + 10 R{4,8} + 10 R{4,10} + 10 R{4,13} + 10 R{4,16} + 10 R{4,17}
   + 10 R{4,21} + 10 R{4,22} + 10 R{4,24} + 10 R{4,25} + 10 R{4,26}
   + 10 R{4,28} <= 10
 R2_25: <= 13
 R2_26: <= 6
 R2_27: 5 R{0,5} + 5 R{0,6} + 5 R{0,12} + 5 R{0,19} + 5 R{1,3} + 5 R{1,5}
   + 5 R{1,7} + 5 R{1,9} + 5 R{1,11} + 5 R{1,13} + 5 R{1,14} + 5 R{1,15}
   + 5 R{1,17} + 5 R{1,18} + 5 R{1,19} + 5 R{1,20} + 5 R{1,21} + 5 R{3,7}
   + 5 R{3,9} + 5 R{4,9} + 5 R{5,11} + 5 R{6,1} + 5 R{6,2} + 5 R{6,3}
   + 5 R{6,4} + 5 R{6,5} + 5 R{6,6} + 5 R{6,7} + 5 R{6,9} + 5 R{6,10}
   + 5 R{6,11} + 5 R{6,12} + 5 R{6,13} + 5 R{6,15} + 5 R{6,16} + 5 R{6,17}
   + 5 R{6,18} + 5 R{6,19} + 5 R{6,20} + 5 R{6,21} + 5 R{6,22} + 5 R{6,23}
   + 5 R{6,24} + 5 R{6,25} + 5 R{6,26} + 5 R{6,27} + 5 R{6,29} + 5 R{6,30}
   + 5 R{6,32} + 5 R{6,33} + 5 R{6,35} + 5 R{6,37} <= 5
 R2_28: <= 0
 R2_29: <= 0
 R2_30: <= 0
 R2_31: 6 R{1,22} <= 6
 R2_32: 7 R{1,22} + 7 R{2,3} + 7 R{2,7} + 7 R{5,7} + 7 R{5,14} <= 7
 R2_33: 12 R{1,4} + 12 R{1,10} + 12 R{3,4} + 12 R{3,10} + 12 R{3,12}
   + 12 R{3,13} + 12 R{3,14} + 12 R{3,15} + 12 R{3,17} <= 12
 R2_34: 5 R{1,3} + 5 R{1,5} + 5 R{1,7} + 5 R{1,9} + 5 R{1,11} + 5 R{1,15}
   + 5 R{1,18} + 5 R{1,20} + 5 R{1,21} + 5 R{1,22} + 5 R{4,4} + 5 R{4,7}
   + 5 R{4,15} + 5 R{4,18} + 5 R{4,27} + 5 R{4,30} + 5 R{6,35} + 5 R{6,36}
   <= 5
 R2_35: 13 R{4,4} + 13 R{4,7} + 13 R{4,18} <= 13
 R2_36: <= 0
 R2_37: 5 R{0,22} + 5 R{3,1} + 5 R{3,2} + 5 R{3,3} + 5 R{3,4} + 5 R{3,5}
   + 5 R{3,6} + 5 R{3,7} + 5 R{3,9} + 5 R{3,10} + 5 R{3,11} + 5 R{3,12}
   + 5 R{3,13} + 5 R{3,14} + 5 R{3,15} + 5 R{3,16} + 5 R{3,17} <= 5
 R2_38: <= 0
 R2_39: <= 0
 R2_40: 15 R{0,22} + 15 R{2,3} + 15 R{2,4} + 15 R{2,7} + 15 R{2,13}
   + 15 R{2,15} + 15 R{6,38} <= 15
 R2_41: 5 R{1,3} + 5 R{1,5} + 5 R{1,9} + 5 R{1,11} + 5 R{1,13} + 5 R{1,14}
   + 5 R{1,15} + 5 R{1,18} + 5 R{1,19} + 5 R{1,20} + 5 R{1,21} + 5 R{1,22}
   + 5 R{2,6} + 5 R{2,8} + 5 R{2,16} + 5 R{3,3} + 5 R{3,5} + 5 R{3,8}
   + 5 R{4,3} + 5 R{4,5} + 5 R{4,8} + 5 R{4,9} + 5 R{4,10} + 5 R{4,11}
   + 5 R{4,12} + 5 R{4,17} + 5 R{4,20} + 5 R{4,22} + 5 R{4,23} + 5 R{4,26}
   + 5 R{4,29} + 5 R{6,4} + 5 R{6,5} + 5 R{6,6} + 5 R{6,7} + 5 R{6,12}
   + 5 R{6,15} + 5 R{6,16} + 5 R{6,18} + 5 R{6,20} + 5 R{6,21} + 5 R{6,22}
   + 5 R{6,24} + 5 R{6,29} + 5 R{6,33} + 5 R{6,37} <= 5
 R2_42: 4 R{2,3} + 4 R{2,7} <= 4
 R2_43: <= 0
 R2_44: <= 0
 R2_45: <= 0
 R2_46: 9 R{0,10} + 9 R{0,15} + 9 R{0,20} + 9 R{1,3} + 9 R{1,5} + 9 R{1,7}
   + 9 R{1,9} + 9 R{1,11} + 9 R{1,13} + 9 R{1,15} + 9 R{1,17} + 9 R{1,18}
   + 9 R{2,14} + 9 R{4,7} + 9 R{4,10} + 9 R{4,15} + 9 R{4,22} + 9 R{6,6}
   <= 9
 R2_47: 7 R{5,1} + 7 R{5,2} + 7 R{5,12} + 7 R{5,13} <= 7
 R2_48: 4 R{4,1} + 4 R{4,2} + 4 R{4,3} + 4 R{4,5} + 4 R{4,6} + 4 R{4,8}
   + 4 R{4,9} + 4 R{4,11} + 4 R{4,12} + 4 R{4,13} + 4 R{4,14} + 4 R{4,16}
   + 4 R{4,17} + 4 R{4,19} + 4 R{4,20} + 4 R{4,21} + 4 R{4,23} + 4 R{4,24}
   + 4 R{4,25} + 4 R{4,28} + 4 R{4,29} + 4 R{4,31} <= 4
 R2_49: <= 0
 R2_50: <= 0
 R2_51: 11 R{4,1} + 11 R{4,2} + 11 R{4,3} + 11 R{4,5} + 11 R{4,6}
   + 11 R{4,8} + 11 R{4,9} + 11 R{4,10} + 11 R{4,11} + 11 R{4,12}
   + 11 R{4,13} + 11 R{4,14} + 11 R{4,16} + 11 R{4,17} + 11 R{4,19}
   + 11 R{4,20} + 11 R{4,21} + 11 R{4,22} + 11 R{4,23} + 11 R{4,24}
   + 11 R{4,25} + 11 R{4,26} + 11 R{4,28} + 11 R{4,29} + 11 R{4,31}
   + 11 R{5,7} + 11 R{6,34} <= 11
 R2_52: 10 R{4,4} + 10 R{4,7} + 10 R{4,10} + 10 R{4,15} + 10 R{4,18}
   + 10 R{4,22} + 10 R{4,26} + 10 R{4,27} + 10 R{4,30} <= 10
 R2_53: 13 R{4,1} + 13 R{4,3} + 13 R{4,9} + 13 R{4,11} + 13 R{4,20}
   + 13 R{4,23} + 13 R{4,29} <= 13
 R2_54: <= 9
 R2_55: 8 R{6,1} + 8 R{6,2} + 8 R{6,3} + 8 R{6,4} + 8 R{6,5} + 8 R{6,6}
   + 8 R{6,7} + 8 R{6,8} + 8 R{6,9} + 8 R{6,11} + 8 R{6,12} + 8 R{6,14}
   + 8 R{6,15} + 8 R{6,16} + 8 R{6,18} + 8 R{6,19} + 8 R{6,20} + 8 R{6,21}
   + 8 R{6,22} + 8 R{6,23} + 8 R{6,24} + 8 R{6,26} + 8 R{6,27} + 8 R{6,29}
   + 8 R{6,30} + 8 R{6,31} + 8 R{6,32} + 8 R{6,33} + 8 R{6,37} + 8 R{6,39}
   <= 8
 R2_56: 6 R{2,0} + 6 R{2,1} + 6 R{2,12} + 6 R{3,10} + 6 R{3,14} + 6 R{4,2}
   + 6 R{4,7} + 6 R{4,10} + 6 R{4,14} + 6 R{4,15} + 6 R{4,19} + 6 R{4,22}
   + 6 R{4,26} + 6 R{4,31} <= 6
 R2_57: <= 0
 R2_58: 15 R{1,7} + 15 R{1,17} <= 15
 R2_59: 10 R{1,7} + 10 R{1,17} + 10 R{4,4} + 10 R{4,6} + 10 R{4,7}
   + 10 R{4,13} + 10 R{4,15} + 10 R{4,16} + 10 R{4,18} + 10 R{4,21}
   + 10 R{4,24} + 10 R{4,25} + 10 R{4,27} + 10 R{4,28} + 10 R{4,29}
   + 10 R{6,23} + 10 R{6,27} + 10 R{6,39} <= 10
 R2_60: <= 0
 R2_61: 9 R{1,3} + 9 R{1,5} + 9 R{1,9} + 9 R{1,11} + 9 R{1,13} + 9 R{1,14}
   + 9 R{1,15} + 9 R{1,18} + 9 R{1,19} + 9 R{1,20} + 9 R{1,21} + 9 R{2,5}
   + 9 R{4,4} + 9 R{4,7} + 9 R{4,8} + 9 R{4,15} + 9 R{4,17} + 9 R{4,18}
   + 9 R{4,27} + 9 R{4,30} + 9 R{6,5} + 9 R{6,6} + 9 R{6,7} + 9 R{6,18}
   + 9 R{6,21} + 9 R{6,33} + 9 R{6,34} <= 9
 R2_62: <= 0
 R2_63: <= 0
 R2_64: <= 0
 R2_65: 5 R{2,0} + 5 R{2,1} + 5 R{2,9} + 5 R{2,10} + 5 R{2,12} + 5 R{2,14}
   + 5 R{6,1} + 5 R{6,2} + 5 R{6,3} + 5 R{6,8} + 5 R{6,9} + 5 R{6,10}
   + 5 R{6,11} + 5 R{6,13} + 5 R{6,14} + 5 R{6,19} + 5 R{6,25} + 5 R{6,26}
   + 5 R{6,30} + 5 R{6,31} + 5 R{6,32} + 5 R{6,34} + 5 R{6,35} <= 5
 R2_66: 7 R{1,22} + 7 R{6,1} + 7 R{6,2} + 7 R{6,4} + 7 R{6,7} + 7 R{6,8}
   + 7 R{6,9} + 7 R{6,11} + 7 R{6,12} + 7 R{6,13} + 7 R{6,14} + 7 R{6,15}
   + 7 R{6,16} + 7 R{6,17} + 7 R{6,18} + 7 R{6,22} + 7 R{6,23} + 7 R{6,24}
   + 7 R{6,26} + 7 R{6,27} + 7 R{6,28} + 7 R{6,29} + 7 R{6,30} + 7 R{6,31}
   + 7 R{6,33} + 7 R{6,36} + 7 R{6,37} + 7 R{6,39} <= 7
 R2_67: 3 R{0,1} + 3 R{0,2} + 3 R{0,7} + 3 R{0,8} + 3 R{0,9} + 3 R{0,13}
   + 3 R{0,18} + 3 R{0,21} + 3 R{1,5} + 3 R{1,13} + 3 R{1,19} + 3 R{1,20}
   + 3 R{2,0} + 3 R{2,1} + 3 R{2,5} + 3 R{2,9} + 3 R{2,10} + 3 R{2,12}
   + 3 R{2,14} + 3 R{6,10} + 3 R{6,25} <= 3
 R2_68: 6 R{0,22} + 6 R{6,1} + 6 R{6,2} + 6 R{6,3} + 6 R{6,4} + 6 R{6,5}
   + 6 R{6,6} + 6 R{6,7} + 6 R{6,8} + 6 R{6,9} + 6 R{6,10} + 6 R{6,12}
   + 6 R{6,13} + 6 R{6,14} + 6 R{6,15} + 6 R{6,16} + 6 R{6,17} + 6 R{6,18}
   + 6 R{6,19} + 6 R{6,20} + 6 R{6,21} + 6 R{6,22} + 6 R{6,23} + 6 R{6,24}
   + 6 R{6,25} + 6 R{6,26} + 6 R{6,27} + 6 R{6,28} + 6 R{6,29} + 6 R{6,30}
   + 6 R{6,31} + 6 R{6,32} + 6 R{6,35} + 6 R{6,37} + 6 R{6,38} + 6 R{6,39}
   <= 6
 R2_69: 7 R{2,6} + 7 R{2,8} + 7 R{2,11} + 7 R{2,16} + 7 R{2,17} + 7 R{4,1}
   + 7 R{4,2} + 7 R{4,3} + 7 R{4,5} + 7 R{4,11} + 7 R{4,12} + 7 R{4,14}
   + 7 R{4,19} + 7 R{4,20} + 7 R{4,23} + 7 R{4,29} + 7 R{4,31} + 7 R{5,11}
   + 7 R{6,8} + 7 R{6,14} + 7 R{6,31} + 7 R{6,39} <= 7
 R2_70: 11 R{1,1} + 11 R{1,2} <= 11
 R2_71: 7 R{1,22} + 7 R{3,1} + 7 R{3,5} + 7 R{3,6} + 7 R{3,7} + 7 R{3,9}
   + 7 R{3,11} + 7 R{3,16} + 7 R{6,34} + 7 R{6,36} + 7 R{6,38} <= 7
 R2_72: <= 0
 R2_73: <= 0
 R2_74: 5 R{5,1} + 5 R{5,12} + 5 R{5,13} <= 5
 R2_75: 8 R{6,1} + 8 R{6,2} + 8 R{6,3} + 8 R{6,4} + 8 R{6,5} + 8 R{6,6}
   + 8 R{6,7} + 8 R{6,8} + 8 R{6,9} + 8 R{6,10} + 8 R{6,11} + 8 R{6,12}
   + 8 R{6,13} + 8 R{6,14} + 8 R{6,16} + 8 R{6,19} + 8 R{6,20} + 8 R{6,22}
   + 8 R{6,23} + 8 R{6,25} + 8 R{6,26} + 8 R{6,27} + 8 R{6,29} + 8 R{6,30}
   + 8 R{6,31} + 8 R{6,32} + 8 R{6,33} + 8 R{6,37} + 8 R{6,38} + 8 R{6,39}
   <= 8
 R2_76: 12 R{1,3} + 12 R{1,11} + 12 R{1,14} + 12 R{1,15} + 12 R{2,6}
   + 12 R{3,4} + 12 R{3,12} + 12 R{3,13} + 12 R{5,1} + 12 R{5,2}
   + 12 R{5,3} + 12 R{5,5} + 12 R{5,12} <= 12
 R2_77: 7 R{0,5} + 7 R{0,6} + 7 R{0,19} + 7 R{1,2} + 7 R{1,4} + 7 R{1,10}
   + 7 R{2,4} + 7 R{2,13} + 7 R{2,15} + 7 R{3,2} + 7 R{3,3} + 7 R{3,4}
   + 7 R{3,8} + 7 R{3,10} + 7 R{3,12} + 7 R{3,13} + 7 R{3,14} + 7 R{3,15}
   + 7 R{5,2} + 7 R{5,4} + 7 R{6,3} + 7 R{6,4} + 7 R{6,6} + 7 R{6,7}
   + 7 R{6,10} + 7 R{6,15} + 7 R{6,16} + 7 R{6,18} + 7 R{6,19} + 7 R{6,20}
   + 7 R{6,22} + 7 R{6,24} + 7 R{6,29} + 7 R{6,32} + 7 R{6,35} <= 7
Bounds
End
